434
5802
5099
1317
4927
2252
8627
4637
2674
8624
5080
2689
893
2185
8775
8756
1399
504
3413
10132
6305
6846
3502
7030
6626
1226
5877
1412
7466
5321
3422
2563
1452
7538
3749
5272
1503
5637
4880
5472
468
2616
3894
3807
1068
7783
8337
8750
2067
4532
